40
1 0 1
2 0 1
3 0 1
3 2 1
4 0 1
4 2 1
4 3 1
5 1 1
5 2 1
6 5 1
7 0 1
7 2 1
7 4 1
7 6 1
8 1 1
8 2 1
8 5 1
8 6 1
9 0 1
9 2 1
9 4 1
9 7 1
9 8 1
10 0 1
10 3 1
10 8 1
10 9 1
11 0 1
11 4 1
11 5 1
11 6 1
12 1 1
12 3 1
12 4 1
12 7 1
12 8 1
12 9 1
12 10 1
12 11 1
13 0 1
13 7 1
13 8 1
13 9 1
14 1 1
14 2 1
14 3 1
14 5 1
14 7 1
14 10 1
14 11 1
14 12 1
14 13 1
15 1 1
15 2 1
15 5 1
15 10 1
15 11 1
15 12 1
16 3 1
16 4 1
16 5 1
16 8 1
16 9 1
16 10 1
16 12 1
17 0 1
17 1 1
17 2 1
17 3 1
17 4 1
17 5 1
17 6 1
17 7 1
17 8 1
17 11 1
17 12 1
17 14 1
17 15 1
18 0 1
18 4 1
18 6 1
18 7 1
18 8 1
18 10 1
18 17 1
19 0 1
19 1 1
19 2 1
19 4 1
19 5 1
19 7 1
19 10 1
19 11 1
19 12 1
19 13 1
19 14 1
19 15 1
19 18 1
20 1 1
20 2 1
20 3 1
20 4 1
20 6 1
20 7 1
20 10 1
20 13 1
20 15 1
20 16 1
20 18 1
21 0 1
21 3 1
21 4 1
21 5 1
21 6 1
21 8 1
21 10 1
21 12 1
21 13 1
21 14 1
21 15 1
21 19 1
21 20 1
22 0 1
22 1 1
22 3 1
22 7 1
22 9 1
22 12 1
22 16 1
22 17 1
22 19 1
22 21 1
23 0 1
23 2 1
23 3 1
23 5 1
23 7 1
23 8 1
23 9 1
23 10 1
23 12 1
23 14 1
23 15 1
23 17 1
23 20 1
23 22 1
24 1 1
24 3 1
24 4 1
24 5 1
24 6 1
24 7 1
24 9 1
24 11 1
24 13 1
24 18 1
24 19 1
25 1 1
25 8 1
25 12 1
25 13 1
25 17 1
25 21 1
25 22 1
25 24 1
26 6 1
26 8 1
26 9 1
26 11 1
26 14 1
26 15 1
26 19 1
26 20 1
26 21 1
26 22 1
26 23 1
26 24 1
27 0 1
27 3 1
27 4 1
27 7 1
27 8 1
27 11 1
27 13 1
27 14 1
27 15 1
27 21 1
27 23 1
27 24 1
27 26 1
28 3 1
28 4 1
28 5 1
28 8 1
28 9 1
28 10 1
28 11 1
28 13 1
28 14 1
28 15 1
28 16 1
28 17 1
28 18 1
28 21 1
28 22 1
28 24 1
28 25 1
28 27 1
29 1 1
29 2 1
29 3 1
29 7 1
29 9 1
29 11 1
29 14 1
29 15 1
29 16 1
29 17 1
29 18 1
29 19 1
29 20 1
29 21 1
29 24 1
29 25 1
29 27 1
29 28 1
30 1 1
30 2 1
30 3 1
30 4 1
30 7 1
30 9 1
30 17 1
30 18 1
30 19 1
30 22 1
30 23 1
30 25 1
30 29 1
31 0 1
31 5 1
31 8 1
31 16 1
31 18 1
31 19 1
31 20 1
31 22 1
31 24 1
31 26 1
31 27 1
32 3 1
32 4 1
32 7 1
32 8 1
32 9 1
32 10 1
32 11 1
32 18 1
32 19 1
32 23 1
32 25 1
32 27 1
32 28 1
32 30 1
33 5 1
33 7 1
33 8 1
33 10 1
33 12 1
33 13 1
33 14 1
33 15 1
33 16 1
33 19 1
33 21 1
33 24 1
33 25 1
33 27 1
33 28 1
33 30 1
34 1 1
34 5 1
34 6 1
34 8 1
34 10 1
34 21 1
34 22 1
34 23 1
34 24 1
34 26 1
34 27 1
34 32 1
34 33 1
35 0 1
35 1 1
35 2 1
35 3 1
35 5 1
35 6 1
35 8 1
35 9 1
35 13 1
35 14 1
35 20 1
35 21 1
35 22 1
35 23 1
35 24 1
35 25 1
35 26 1
35 29 1
35 30 1
35 31 1
35 34 1
36 0 1
36 3 1
36 5 1
36 7 1
36 8 1
36 9 1
36 12 1
36 15 1
36 20 1
36 26 1
36 27 1
36 29 1
36 31 1
37 2 1
37 5 1
37 6 1
37 8 1
37 9 1
37 11 1
37 13 1
37 16 1
37 18 1
37 19 1
37 20 1
37 22 1
37 25 1
37 28 1
37 31 1
37 34 1
38 0 1
38 1 1
38 2 1
38 3 1
38 5 1
38 8 1
38 9 1
38 10 1
38 13 1
38 14 1
38 15 1
38 16 1
38 17 1
38 20 1
38 25 1
38 27 1
38 29 1
38 30 1
38 31 1
38 33 1
38 36 1
38 37 1
39 1 1
39 2 1
39 6 1
39 8 1
39 10 1
39 12 1
39 14 1
39 15 1
39 16 1
39 17 1
39 21 1
39 22 1
39 23 1
39 24 1
39 26 1
39 30 1
39 32 1
39 33 1
39 34 1
39 37 1
